28
5
15 25 14 10 19 8 6 20 9 5 23 12 21 16 22 18 11 27 17 7 13 4 2 1 24 0 26 3
1 18 22 21 20 25 3 4 9 5 7 0 6 27 15 19 13 10 26 23 11 14 17
10 21 24 13 6 27 14 8 18 16 15 1 26 22
18 0 17 26 16 15 13 5 1 3 19 20 21 23 27
14 17 16 18 24 10 6 25 22 8 4 19 26 23 5 11 27 12 15 9 7 13 21 2
